letting n =  10
letting blocks =  [[1, 3], [1, 9], [2, 1], [2, 5], [3, 2], [3, 4], [3, 6], [3, 7], [3, 10], [4, 4], [4, 6], [5, 3], [5, 4], [5, 5], [5, 7], [6, 1], [6, 5], [6, 7], [7, 5], [7, 9], [8, 1], [8, 3], [8, 10], [9, 2], [9, 8], [10, 1], [10, 2], [10, 9]]
